benchmarks_vrp/CMT5/fixed_c_size/CMT5_0.vrp
NAME: CMT5_0
TYPE: CVRP
COMMENT: 1291.29 - Cluster Nr.0
DIMENSION: 11
CAPACITY: 200
EDGE_WEIGHT_TYPE: EUC_2D
NODE_COORD_TYPE: TWOD_COORDS
NODE_COORD_SECTION: 
9 21 45
3 21 47
4 25 55
10 20 40
11 22 53
5 35 35
1 21 48
2 20 50
7 15 47
8 26 52
6 27 43
DEPOT_SECTION: 
5
-1
DEMAND_SECTION: 
7 16
1 17
10 12
11 28
9 11
5 0
4 17
3 15
2 5
8 9
6 9
EOF
