benchmarks_vrp/CMT5/fixed_c_size/CMT5_0.tour
NAME: CMT5_0 solution
TYPE: TOUR
TOUR_SECTION:
5 6 8 4 11 2 7 1 3 9 10 -1
-1
EOF